(set-info :smt-lib-version 2.6)
(set-logic QF_NIA)
(set-info :source |
Generated by: Cristina Borralleras, Daniel Larraz, Albert Oliveras, Enric Rodriguez-Carbonell, Albert Rubio
Generated on: 2017-04-27
Generator: VeryMax
Application: Termination proving
Target solver: barcelogic
|)
(set-info :license "https://creativecommons.org/licenses/by/4.0/")
(set-info :category "industrial")
(set-info :status unsat)
(declare-fun Nl10__disjvr_10^01 () Int)
(declare-fun Nl10__disjvr_11^01 () Int)
(declare-fun Nl10__disjvr_12^01 () Int)
(declare-fun Nl10a_178^01 () Int)
(declare-fun Nl10lt_20^01 () Int)
(declare-fun Nl10rcd_43^01 () Int)
(declare-fun Nl10y_23^01 () Int)
(declare-fun Nl10__disjvr_10^02 () Int)
(declare-fun Nl10__disjvr_11^02 () Int)
(declare-fun Nl10__disjvr_12^02 () Int)
(declare-fun Nl10a_178^02 () Int)
(declare-fun Nl10lt_20^02 () Int)
(declare-fun Nl10rcd_43^02 () Int)
(declare-fun Nl10y_23^02 () Int)
(declare-fun lam0n0 () Int)
(declare-fun lam0n9 () Int)
(declare-fun lam0n10 () Int)
(declare-fun Nl10CT1 () Int)
(declare-fun Nl10CT2 () Int)
(declare-fun lam0n1 () Int)
(declare-fun lam0n2 () Int)
(declare-fun lam0n3 () Int)
(declare-fun lam0n4 () Int)
(declare-fun lam0n5 () Int)
(declare-fun lam0n6 () Int)
(declare-fun lam0n7 () Int)
(declare-fun lam0n8 () Int)
(declare-fun lam1n0 () Int)
(declare-fun lam1n9 () Int)
(declare-fun lam1n10 () Int)
(declare-fun lam1n1 () Int)
(declare-fun lam1n2 () Int)
(declare-fun lam1n3 () Int)
(declare-fun lam1n4 () Int)
(declare-fun lam1n5 () Int)
(declare-fun lam1n6 () Int)
(declare-fun lam1n7 () Int)
(declare-fun lam1n8 () Int)
(declare-fun lam2n0 () Int)
(declare-fun lam2n9 () Int)
(declare-fun lam2n10 () Int)
(declare-fun lam2n1 () Int)
(declare-fun lam2n2 () Int)
(declare-fun lam2n3 () Int)
(declare-fun lam2n4 () Int)
(declare-fun lam2n5 () Int)
(declare-fun lam2n6 () Int)
(declare-fun lam2n7 () Int)
(declare-fun lam2n8 () Int)
(declare-fun lam3n0 () Int)
(declare-fun lam3n1 () Int)
(declare-fun lam3n2 () Int)
(declare-fun lam3n3 () Int)
(declare-fun lam3n4 () Int)
(declare-fun lam3n5 () Int)
(declare-fun lam3n6 () Int)
(declare-fun lam3n25 () Int)
(declare-fun lam3n7 () Int)
(declare-fun lam3n8 () Int)
(declare-fun lam3n9 () Int)
(declare-fun lam3n10 () Int)
(declare-fun lam3n11 () Int)
(declare-fun lam3n12 () Int)
(declare-fun lam3n13 () Int)
(declare-fun lam3n14 () Int)
(declare-fun lam3n15 () Int)
(declare-fun lam3n16 () Int)
(declare-fun lam3n17 () Int)
(declare-fun lam3n18 () Int)
(declare-fun lam3n19 () Int)
(declare-fun lam3n20 () Int)
(declare-fun lam3n21 () Int)
(declare-fun lam3n22 () Int)
(declare-fun lam3n23 () Int)
(declare-fun lam3n24 () Int)
(declare-fun lam4n0 () Int)
(declare-fun lam4n1 () Int)
(declare-fun lam4n2 () Int)
(declare-fun lam4n3 () Int)
(declare-fun lam4n4 () Int)
(declare-fun lam4n5 () Int)
(declare-fun lam4n6 () Int)
(declare-fun lam4n25 () Int)
(declare-fun lam4n7 () Int)
(declare-fun lam4n8 () Int)
(declare-fun lam4n9 () Int)
(declare-fun lam4n10 () Int)
(declare-fun lam4n11 () Int)
(declare-fun lam4n12 () Int)
(declare-fun lam4n13 () Int)
(declare-fun lam4n14 () Int)
(declare-fun lam4n15 () Int)
(declare-fun lam4n16 () Int)
(declare-fun lam4n17 () Int)
(declare-fun lam4n18 () Int)
(declare-fun lam4n19 () Int)
(declare-fun lam4n20 () Int)
(declare-fun lam4n21 () Int)
(declare-fun lam4n22 () Int)
(declare-fun lam4n23 () Int)
(declare-fun lam4n24 () Int)
(declare-fun i_120^0 () Int)
(declare-fun undef123 () Int)
(declare-fun undef255 () Int)
(declare-fun i_29^0 () Int)
(declare-fun length_27^0 () Int)
(declare-fun __disjvr_0^0 () Int)
(declare-fun undef136 () Int)
(declare-fun __disjvr_1^0 () Int)
(declare-fun undef278 () Int)
(declare-fun __disjvr_2^0 () Int)
(declare-fun undef415 () Int)
(declare-fun __disjvr_3^0 () Int)
(declare-fun undef481 () Int)
(declare-fun a_178^0 () Int)
(declare-fun undef358 () Int)
(declare-fun head_31^0 () Int)
(declare-fun undef135 () Int)
(declare-fun lt_20^0 () Int)
(declare-fun undef265 () Int)
(declare-fun rcd_43^0 () Int)
(declare-fun undef247 () Int)
(declare-fun undef121 () Int)
(declare-fun undef125 () Int)
(declare-fun undef134 () Int)
(declare-fun undef263 () Int)
(declare-fun undef266 () Int)
(declare-fun undef231 () Int)
(declare-fun undef264 () Int)
(declare-fun undef387 () Int)
(declare-fun undef239 () Int)
(declare-fun undef253 () Int)
(declare-fun undef257 () Int)
(declare-fun undef561 () Int)
(declare-fun __disjvr_10^0 () Int)
(declare-fun __disjvr_11^0 () Int)
(declare-fun __disjvr_12^0 () Int)
(declare-fun lam8n0 () Int)
(declare-fun lam8n9 () Int)
(declare-fun lam8n10 () Int)
(declare-fun RFN1_CT () Int)
(declare-fun RFN1___disjvr_10^0 () Int)
(declare-fun RFN1___disjvr_11^0 () Int)
(declare-fun RFN1___disjvr_12^0 () Int)
(declare-fun RFN1_a_178^0 () Int)
(declare-fun RFN1_lt_20^0 () Int)
(declare-fun RFN1_rcd_43^0 () Int)
(declare-fun lam8n1 () Int)
(declare-fun lam8n2 () Int)
(declare-fun lam8n3 () Int)
(declare-fun lam8n4 () Int)
(declare-fun RFN1_y_23^0 () Int)
(declare-fun lam8n5 () Int)
(declare-fun lam8n6 () Int)
(declare-fun lam8n7 () Int)
(declare-fun lam8n8 () Int)
(declare-fun lam6n0 () Int)
(declare-fun lam6n9 () Int)
(declare-fun lam6n10 () Int)
(declare-fun lam6n1 () Int)
(declare-fun lam6n2 () Int)
(declare-fun lam6n3 () Int)
(declare-fun lam6n4 () Int)
(declare-fun lam6n5 () Int)
(declare-fun lam6n6 () Int)
(declare-fun lam6n7 () Int)
(declare-fun lam6n8 () Int)
(declare-fun lam7n0 () Int)
(declare-fun lam7n9 () Int)
(declare-fun lam7n10 () Int)
(declare-fun lam7n1 () Int)
(declare-fun lam7n2 () Int)
(declare-fun lam7n3 () Int)
(declare-fun lam7n4 () Int)
(declare-fun lam7n5 () Int)
(declare-fun lam7n6 () Int)
(declare-fun lam7n7 () Int)
(declare-fun lam7n8 () Int)
(declare-fun lam5n0 () Int)
(declare-fun lam5n9 () Int)
(declare-fun lam5n10 () Int)
(declare-fun lam5n1 () Int)
(declare-fun lam5n2 () Int)
(declare-fun lam5n3 () Int)
(declare-fun lam5n4 () Int)
(declare-fun lam5n5 () Int)
(declare-fun lam5n6 () Int)
(declare-fun lam5n7 () Int)
(declare-fun lam5n8 () Int)
(assert ( and ( <= ( - 1 ) Nl10__disjvr_10^01 ) ( <= Nl10__disjvr_10^01 1 ) ( <= ( - 1 ) Nl10__disjvr_11^01 ) ( <= Nl10__disjvr_11^01 1 ) ( <= ( - 1 ) Nl10__disjvr_12^01 ) ( <= Nl10__disjvr_12^01 1 ) ( <= ( - 1 ) Nl10a_178^01 ) ( <= Nl10a_178^01 1 ) ( <= ( - 1 ) Nl10lt_20^01 ) ( <= Nl10lt_20^01 1 ) ( <= ( - 1 ) Nl10rcd_43^01 ) ( <= Nl10rcd_43^01 1 ) ( <= ( - 1 ) Nl10y_23^01 ) ( <= Nl10y_23^01 1 ) ( <= ( - 1 ) Nl10__disjvr_10^02 ) ( <= Nl10__disjvr_10^02 1 ) ( <= ( - 1 ) Nl10__disjvr_11^02 ) ( <= Nl10__disjvr_11^02 1 ) ( <= ( - 1 ) Nl10__disjvr_12^02 ) ( <= Nl10__disjvr_12^02 1 ) ( <= ( - 1 ) Nl10a_178^02 ) ( <= Nl10a_178^02 1 ) ( <= ( - 1 ) Nl10lt_20^02 ) ( <= Nl10lt_20^02 1 ) ( <= ( - 1 ) Nl10rcd_43^02 ) ( <= Nl10rcd_43^02 1 ) ( <= ( - 1 ) Nl10y_23^02 ) ( <= Nl10y_23^02 1 ) ))
(assert ( or ( and ( >= lam0n0 0 ) ( >= lam0n9 0 ) ( >= lam0n10 0 ) ( > ( + ( * 2 lam0n0 ) ( * Nl10CT1 lam0n9 ) ( * Nl10CT2 lam0n10 ) ( - 1 ) ) 0 ) ( = ( + ( * 1 lam0n1 ) ( * Nl10__disjvr_10^01 lam0n9 ) ( * Nl10__disjvr_10^02 lam0n10 ) ) 0 ) ( = ( + ( * 1 lam0n2 ) ( * Nl10__disjvr_11^01 lam0n9 ) ( * Nl10__disjvr_11^02 lam0n10 ) ) 0 ) ( = ( + ( * 1 lam0n3 ) ( * Nl10__disjvr_12^01 lam0n9 ) ( * Nl10__disjvr_12^02 lam0n10 ) ) 0 ) ( = ( + ( * Nl10a_178^01 lam0n9 ) ( * Nl10a_178^02 lam0n10 ) ) 0 ) ( = ( + ( * Nl10lt_20^01 lam0n9 ) ( * Nl10lt_20^02 lam0n10 ) ) 0 ) ( = ( + ( * Nl10rcd_43^01 lam0n9 ) ( * Nl10rcd_43^02 lam0n10 ) ) 0 ) ( = ( + ( * 1 lam0n4 ) ( * Nl10y_23^01 lam0n9 ) ( * Nl10y_23^02 lam0n10 ) ) 0 ) ( = ( * 1 lam0n5 ) 0 ) ( = ( * ( - 1 ) lam0n4 ) 0 ) ( = ( * 1 lam0n6 ) 0 ) ( = ( * ( - 1 ) lam0n0 ) 0 ) ( = ( * ( - 1 ) lam0n6 ) 0 ) ( = ( * ( - 1 ) lam0n5 ) 0 ) ( = ( * ( - 1 ) lam0n1 ) 0 ) ( = ( * 1 lam0n7 ) 0 ) ( = ( * 1 lam0n8 ) 0 ) ( = ( * ( - 1 ) lam0n2 ) 0 ) ( = ( * ( - 1 ) lam0n3 ) 0 ) ( = ( * ( - 1 ) lam0n7 ) 0 ) ( = ( * ( - 1 ) lam0n8 ) 0 ) ) ( and ( >= lam1n0 0 ) ( >= lam1n9 0 ) ( >= lam1n10 0 ) ( > ( + ( * 2 lam1n0 ) ( * Nl10CT1 lam1n9 ) ( * Nl10CT2 lam1n10 ) ( - 1 ( + ( + ( + ( + ( + ( + Nl10CT1 ( * Nl10__disjvr_10^01 0 ) ) ( * Nl10__disjvr_11^01 0 ) ) ( * Nl10__disjvr_12^01 0 ) ) ( * Nl10a_178^01 0 ) ) ( * Nl10lt_20^01 0 ) ) ( * Nl10rcd_43^01 0 ) ) ) ) 0 ) ( = ( + ( * 1 lam1n1 ) ( * Nl10__disjvr_10^01 lam1n9 ) ( * Nl10__disjvr_10^02 lam1n10 ) ) 0 ) ( = ( + ( * 1 lam1n2 ) ( * Nl10__disjvr_11^01 lam1n9 ) ( * Nl10__disjvr_11^02 lam1n10 ) ) 0 ) ( = ( + ( * 1 lam1n3 ) ( * Nl10__disjvr_12^01 lam1n9 ) ( * Nl10__disjvr_12^02 lam1n10 ) ) 0 ) ( = ( + ( * Nl10a_178^01 lam1n9 ) ( * Nl10a_178^02 lam1n10 ) ) 0 ) ( = ( + ( * Nl10lt_20^01 lam1n9 ) ( * Nl10lt_20^02 lam1n10 ) ) 0 ) ( = ( + ( * Nl10rcd_43^01 lam1n9 ) ( * Nl10rcd_43^02 lam1n10 ) ) 0 ) ( = ( + ( * 1 lam1n4 ) ( * Nl10y_23^01 lam1n9 ) ( * Nl10y_23^02 lam1n10 ) ( - ( + 0 Nl10y_23^01 ) ) ) 0 ) ( = ( * 1 lam1n5 ) 0 ) ( = ( + ( * ( - 1 ) lam1n4 ) ( - ( + 0 ( * Nl10lt_20^01 1 ) ) ) ) 0 ) ( = ( * 1 lam1n6 ) 0 ) ( = ( * ( - 1 ) lam1n0 ) 0 ) ( = ( * ( - 1 ) lam1n6 ) 0 ) ( = ( * ( - 1 ) lam1n5 ) 0 ) ( = ( + ( * ( - 1 ) lam1n1 ) ( - ( + 0 ( * Nl10__disjvr_10^01 1 ) ) ) ) 0 ) ( = ( * 1 lam1n7 ) 0 ) ( = ( * 1 lam1n8 ) 0 ) ( = ( + ( * ( - 1 ) lam1n2 ) ( - ( + 0 ( * Nl10__disjvr_11^01 1 ) ) ) ) 0 ) ( = ( + ( * ( - 1 ) lam1n3 ) ( - ( + 0 ( * Nl10__disjvr_12^01 1 ) ) ) ) 0 ) ( = ( + ( * ( - 1 ) lam1n7 ) ( - ( + 0 ( * Nl10a_178^01 1 ) ) ) ) 0 ) ( = ( + ( * ( - 1 ) lam1n8 ) ( - ( + 0 ( * Nl10rcd_43^01 1 ) ) ) ) 0 ) ) ))
(assert ( or ( and ( >= lam0n0 0 ) ( >= lam0n9 0 ) ( >= lam0n10 0 ) ( > ( + ( * 2 lam0n0 ) ( * Nl10CT1 lam0n9 ) ( * Nl10CT2 lam0n10 ) ( - 1 ) ) 0 ) ( = ( + ( * 1 lam0n1 ) ( * Nl10__disjvr_10^01 lam0n9 ) ( * Nl10__disjvr_10^02 lam0n10 ) ) 0 ) ( = ( + ( * 1 lam0n2 ) ( * Nl10__disjvr_11^01 lam0n9 ) ( * Nl10__disjvr_11^02 lam0n10 ) ) 0 ) ( = ( + ( * 1 lam0n3 ) ( * Nl10__disjvr_12^01 lam0n9 ) ( * Nl10__disjvr_12^02 lam0n10 ) ) 0 ) ( = ( + ( * Nl10a_178^01 lam0n9 ) ( * Nl10a_178^02 lam0n10 ) ) 0 ) ( = ( + ( * Nl10lt_20^01 lam0n9 ) ( * Nl10lt_20^02 lam0n10 ) ) 0 ) ( = ( + ( * Nl10rcd_43^01 lam0n9 ) ( * Nl10rcd_43^02 lam0n10 ) ) 0 ) ( = ( + ( * 1 lam0n4 ) ( * Nl10y_23^01 lam0n9 ) ( * Nl10y_23^02 lam0n10 ) ) 0 ) ( = ( * 1 lam0n5 ) 0 ) ( = ( * ( - 1 ) lam0n4 ) 0 ) ( = ( * 1 lam0n6 ) 0 ) ( = ( * ( - 1 ) lam0n0 ) 0 ) ( = ( * ( - 1 ) lam0n6 ) 0 ) ( = ( * ( - 1 ) lam0n5 ) 0 ) ( = ( * ( - 1 ) lam0n1 ) 0 ) ( = ( * 1 lam0n7 ) 0 ) ( = ( * 1 lam0n8 ) 0 ) ( = ( * ( - 1 ) lam0n2 ) 0 ) ( = ( * ( - 1 ) lam0n3 ) 0 ) ( = ( * ( - 1 ) lam0n7 ) 0 ) ( = ( * ( - 1 ) lam0n8 ) 0 ) ) ( and ( >= lam2n0 0 ) ( >= lam2n9 0 ) ( >= lam2n10 0 ) ( > ( + ( * 2 lam2n0 ) ( * Nl10CT1 lam2n9 ) ( * Nl10CT2 lam2n10 ) ( - 1 ( + ( + ( + ( + ( + ( + Nl10CT2 ( * Nl10__disjvr_10^02 0 ) ) ( * Nl10__disjvr_11^02 0 ) ) ( * Nl10__disjvr_12^02 0 ) ) ( * Nl10a_178^02 0 ) ) ( * Nl10lt_20^02 0 ) ) ( * Nl10rcd_43^02 0 ) ) ) ) 0 ) ( = ( + ( * 1 lam2n1 ) ( * Nl10__disjvr_10^01 lam2n9 ) ( * Nl10__disjvr_10^02 lam2n10 ) ) 0 ) ( = ( + ( * 1 lam2n2 ) ( * Nl10__disjvr_11^01 lam2n9 ) ( * Nl10__disjvr_11^02 lam2n10 ) ) 0 ) ( = ( + ( * 1 lam2n3 ) ( * Nl10__disjvr_12^01 lam2n9 ) ( * Nl10__disjvr_12^02 lam2n10 ) ) 0 ) ( = ( + ( * Nl10a_178^01 lam2n9 ) ( * Nl10a_178^02 lam2n10 ) ) 0 ) ( = ( + ( * Nl10lt_20^01 lam2n9 ) ( * Nl10lt_20^02 lam2n10 ) ) 0 ) ( = ( + ( * Nl10rcd_43^01 lam2n9 ) ( * Nl10rcd_43^02 lam2n10 ) ) 0 ) ( = ( + ( * 1 lam2n4 ) ( * Nl10y_23^01 lam2n9 ) ( * Nl10y_23^02 lam2n10 ) ( - ( + 0 Nl10y_23^02 ) ) ) 0 ) ( = ( * 1 lam2n5 ) 0 ) ( = ( + ( * ( - 1 ) lam2n4 ) ( - ( + 0 ( * Nl10lt_20^02 1 ) ) ) ) 0 ) ( = ( * 1 lam2n6 ) 0 ) ( = ( * ( - 1 ) lam2n0 ) 0 ) ( = ( * ( - 1 ) lam2n6 ) 0 ) ( = ( * ( - 1 ) lam2n5 ) 0 ) ( = ( + ( * ( - 1 ) lam2n1 ) ( - ( + 0 ( * Nl10__disjvr_10^02 1 ) ) ) ) 0 ) ( = ( * 1 lam2n7 ) 0 ) ( = ( * 1 lam2n8 ) 0 ) ( = ( + ( * ( - 1 ) lam2n2 ) ( - ( + 0 ( * Nl10__disjvr_11^02 1 ) ) ) ) 0 ) ( = ( + ( * ( - 1 ) lam2n3 ) ( - ( + 0 ( * Nl10__disjvr_12^02 1 ) ) ) ) 0 ) ( = ( + ( * ( - 1 ) lam2n7 ) ( - ( + 0 ( * Nl10a_178^02 1 ) ) ) ) 0 ) ( = ( + ( * ( - 1 ) lam2n8 ) ( - ( + 0 ( * Nl10rcd_43^02 1 ) ) ) ) 0 ) ) ))
(assert ( and ( <= ( * ( - 1 ) i_120^0 ) 0 ) ( <= ( + ( * ( - 1 ) i_120^0 ) undef123 ) 0 ) ( <= ( + ( * ( - 1 ) i_120^0 ) undef255 ) 0 ) ( <= ( * ( - 1 ) i_29^0 ) 0 ) ( <= ( + ( * ( - 1 ) i_29^0 ) length_27^0 ) 0 ) ( <= ( + 2 ( * ( - 1 ) undef123 ) ) 0 ) ( <= ( + 2 ( * ( - 1 ) undef255 ) ) 0 ) ( = ( + __disjvr_0^0 ( * ( - 1 ) undef136 ) ) 0 ) ( = ( + __disjvr_1^0 ( * ( - 1 ) undef278 ) ) 0 ) ( = ( + __disjvr_2^0 ( * ( - 1 ) undef415 ) ) 0 ) ( = ( + __disjvr_3^0 ( * ( - 1 ) undef481 ) ) 0 ) ( = ( + ( * ( - 1 ) a_178^0 ) undef358 ) 0 ) ( = ( + head_31^0 ( * ( - 1 ) undef135 ) ) 0 ) ( = ( + lt_20^0 ( * ( - 1 ) undef265 ) ) 0 ) ( = ( + rcd_43^0 ( * ( - 1 ) undef247 ) ) 0 ) ( = ( + undef121 ( * ( - 1 ) undef125 ) ) 0 ) ( = ( + undef134 ( * ( - 1 ) undef135 ) ) 0 ) ( = ( + undef134 ( * ( - 1 ) undef263 ) ) 0 ) ( = ( + undef134 ( * ( - 1 ) undef266 ) ) 0 ) ( = ( + undef231 ( * ( - 1 ) undef264 ) ) 0 ) ( = ( + undef231 ( * ( - 1 ) undef387 ) ) 0 ) ( = ( + undef239 ( * ( - 1 ) undef265 ) ) 0 ) ( = ( + undef253 ( * ( - 1 ) undef257 ) ) 0 ) ( = ( + undef263 ( * ( - 1 ) undef266 ) ) 0 ) ( = ( + undef263 ( * ( - 1 ) undef387 ) ) 0 ) ( = ( + ( - 1 ) ( * ( - 1 ) undef358 ) undef561 ) 0 ) ( <= ( + ( + ( + Nl10CT1 ( * Nl10lt_20^01 0 ) ) ( * Nl10y_23^01 0 ) ) ( * ( + 0 Nl10__disjvr_10^01 ) __disjvr_10^0 ) ( * ( + 0 Nl10__disjvr_11^01 ) __disjvr_11^0 ) ( * ( + 0 Nl10__disjvr_12^01 ) __disjvr_12^0 ) ( * ( + 0 Nl10a_178^01 ) a_178^0 ) ( * ( + 0 Nl10rcd_43^01 ) rcd_43^0 ) ( * ( + 0 ( * Nl10lt_20^01 1 ) ) undef239 ) ( * ( + 0 ( * Nl10y_23^01 1 ) ) undef265 ) ) 0 ) ( <= ( + ( + ( + Nl10CT2 ( * Nl10lt_20^02 0 ) ) ( * Nl10y_23^02 0 ) ) ( * ( + 0 Nl10__disjvr_10^02 ) __disjvr_10^0 ) ( * ( + 0 Nl10__disjvr_11^02 ) __disjvr_11^0 ) ( * ( + 0 Nl10__disjvr_12^02 ) __disjvr_12^0 ) ( * ( + 0 Nl10a_178^02 ) a_178^0 ) ( * ( + 0 Nl10rcd_43^02 ) rcd_43^0 ) ( * ( + 0 ( * Nl10lt_20^02 1 ) ) undef239 ) ( * ( + 0 ( * Nl10y_23^02 1 ) ) undef265 ) ) 0 ) ))
(assert ( or ( and ( and ( >= lam8n0 0 ) ( >= lam8n9 0 ) ( >= lam8n10 0 ) ( > ( + ( * 2 lam8n0 ) ( * Nl10CT1 lam8n9 ) ( * Nl10CT2 lam8n10 ) ( - 1 ( - ( + ( + ( + ( + ( + ( + RFN1_CT ( * RFN1___disjvr_10^0 0 ) ) ( * RFN1___disjvr_11^0 0 ) ) ( * RFN1___disjvr_12^0 0 ) ) ( * RFN1_a_178^0 0 ) ) ( * RFN1_lt_20^0 0 ) ) ( * RFN1_rcd_43^0 0 ) ) RFN1_CT ) ) ) 0 ) ( = ( + ( * 1 lam8n1 ) ( * Nl10__disjvr_10^01 lam8n9 ) ( * Nl10__disjvr_10^02 lam8n10 ) ( - ( - RFN1___disjvr_10^0 ) ) ) 0 ) ( = ( + ( * 1 lam8n2 ) ( * Nl10__disjvr_11^01 lam8n9 ) ( * Nl10__disjvr_11^02 lam8n10 ) ( - ( - RFN1___disjvr_11^0 ) ) ) 0 ) ( = ( + ( * 1 lam8n3 ) ( * Nl10__disjvr_12^01 lam8n9 ) ( * Nl10__disjvr_12^02 lam8n10 ) ( - ( - RFN1___disjvr_12^0 ) ) ) 0 ) ( = ( + ( * Nl10a_178^01 lam8n9 ) ( * Nl10a_178^02 lam8n10 ) ( - ( - RFN1_a_178^0 ) ) ) 0 ) ( = ( + ( * Nl10lt_20^01 lam8n9 ) ( * Nl10lt_20^02 lam8n10 ) ( - ( - RFN1_lt_20^0 ) ) ) 0 ) ( = ( + ( * Nl10rcd_43^01 lam8n9 ) ( * Nl10rcd_43^02 lam8n10 ) ( - ( - RFN1_rcd_43^0 ) ) ) 0 ) ( = ( + ( * 1 lam8n4 ) ( * Nl10y_23^01 lam8n9 ) ( * Nl10y_23^02 lam8n10 ) ( - ( - ( + 0 RFN1_y_23^0 ) RFN1_y_23^0 ) ) ) 0 ) ( = ( * 1 lam8n5 ) 0 ) ( = ( + ( * ( - 1 ) lam8n4 ) ( - ( + 0 ( * RFN1_lt_20^0 1 ) ) ) ) 0 ) ( = ( * 1 lam8n6 ) 0 ) ( = ( * ( - 1 ) lam8n0 ) 0 ) ( = ( * ( - 1 ) lam8n6 ) 0 ) ( = ( * ( - 1 ) lam8n5 ) 0 ) ( = ( + ( * ( - 1 ) lam8n1 ) ( - ( + 0 ( * RFN1___disjvr_10^0 1 ) ) ) ) 0 ) ( = ( * 1 lam8n7 ) 0 ) ( = ( * 1 lam8n8 ) 0 ) ( = ( + ( * ( - 1 ) lam8n2 ) ( - ( + 0 ( * RFN1___disjvr_11^0 1 ) ) ) ) 0 ) ( = ( + ( * ( - 1 ) lam8n3 ) ( - ( + 0 ( * RFN1___disjvr_12^0 1 ) ) ) ) 0 ) ( = ( + ( * ( - 1 ) lam8n7 ) ( - ( + 0 ( * RFN1_a_178^0 1 ) ) ) ) 0 ) ( = ( + ( * ( - 1 ) lam8n8 ) ( - ( + 0 ( * RFN1_rcd_43^0 1 ) ) ) ) 0 ) ) ( and ( and ( >= lam6n0 0 ) ( >= lam6n9 0 ) ( >= lam6n10 0 ) ( > ( + ( * 2 lam6n0 ) ( * Nl10CT1 lam6n9 ) ( * Nl10CT2 lam6n10 ) ( - 1 ( - RFN1_CT ) ) ) 0 ) ( = ( + ( * 1 lam6n1 ) ( * Nl10__disjvr_10^01 lam6n9 ) ( * Nl10__disjvr_10^02 lam6n10 ) ( - ( - RFN1___disjvr_10^0 ) ) ) 0 ) ( = ( + ( * 1 lam6n2 ) ( * Nl10__disjvr_11^01 lam6n9 ) ( * Nl10__disjvr_11^02 lam6n10 ) ( - ( - RFN1___disjvr_11^0 ) ) ) 0 ) ( = ( + ( * 1 lam6n3 ) ( * Nl10__disjvr_12^01 lam6n9 ) ( * Nl10__disjvr_12^02 lam6n10 ) ( - ( - RFN1___disjvr_12^0 ) ) ) 0 ) ( = ( + ( * Nl10a_178^01 lam6n9 ) ( * Nl10a_178^02 lam6n10 ) ( - ( - RFN1_a_178^0 ) ) ) 0 ) ( = ( + ( * Nl10lt_20^01 lam6n9 ) ( * Nl10lt_20^02 lam6n10 ) ( - ( - RFN1_lt_20^0 ) ) ) 0 ) ( = ( + ( * Nl10rcd_43^01 lam6n9 ) ( * Nl10rcd_43^02 lam6n10 ) ( - ( - RFN1_rcd_43^0 ) ) ) 0 ) ( = ( + ( * 1 lam6n4 ) ( * Nl10y_23^01 lam6n9 ) ( * Nl10y_23^02 lam6n10 ) ( - ( - RFN1_y_23^0 ) ) ) 0 ) ( = ( * 1 lam6n5 ) 0 ) ( = ( * ( - 1 ) lam6n4 ) 0 ) ( = ( * 1 lam6n6 ) 0 ) ( = ( * ( - 1 ) lam6n0 ) 0 ) ( = ( * ( - 1 ) lam6n6 ) 0 ) ( = ( * ( - 1 ) lam6n5 ) 0 ) ( = ( * ( - 1 ) lam6n1 ) 0 ) ( = ( * 1 lam6n7 ) 0 ) ( = ( * 1 lam6n8 ) 0 ) ( = ( * ( - 1 ) lam6n2 ) 0 ) ( = ( * ( - 1 ) lam6n3 ) 0 ) ( = ( * ( - 1 ) lam6n7 ) 0 ) ( = ( * ( - 1 ) lam6n8 ) 0 ) ) ( and ( >= lam7n0 0 ) ( >= lam7n9 0 ) ( >= lam7n10 0 ) ( > ( + ( * 2 lam7n0 ) ( * Nl10CT1 lam7n9 ) ( * Nl10CT2 lam7n10 ) ( - 1 ( + ( - ( + ( + ( + ( + ( + ( + RFN1_CT ( * RFN1___disjvr_10^0 0 ) ) ( * RFN1___disjvr_11^0 0 ) ) ( * RFN1___disjvr_12^0 0 ) ) ( * RFN1_a_178^0 0 ) ) ( * RFN1_lt_20^0 0 ) ) ( * RFN1_rcd_43^0 0 ) ) RFN1_CT ) 1 ) ) ) 0 ) ( = ( + ( * 1 lam7n1 ) ( * Nl10__disjvr_10^01 lam7n9 ) ( * Nl10__disjvr_10^02 lam7n10 ) ( - ( - RFN1___disjvr_10^0 ) ) ) 0 ) ( = ( + ( * 1 lam7n2 ) ( * Nl10__disjvr_11^01 lam7n9 ) ( * Nl10__disjvr_11^02 lam7n10 ) ( - ( - RFN1___disjvr_11^0 ) ) ) 0 ) ( = ( + ( * 1 lam7n3 ) ( * Nl10__disjvr_12^01 lam7n9 ) ( * Nl10__disjvr_12^02 lam7n10 ) ( - ( - RFN1___disjvr_12^0 ) ) ) 0 ) ( = ( + ( * Nl10a_178^01 lam7n9 ) ( * Nl10a_178^02 lam7n10 ) ( - ( - RFN1_a_178^0 ) ) ) 0 ) ( = ( + ( * Nl10lt_20^01 lam7n9 ) ( * Nl10lt_20^02 lam7n10 ) ( - ( - RFN1_lt_20^0 ) ) ) 0 ) ( = ( + ( * Nl10rcd_43^01 lam7n9 ) ( * Nl10rcd_43^02 lam7n10 ) ( - ( - RFN1_rcd_43^0 ) ) ) 0 ) ( = ( + ( * 1 lam7n4 ) ( * Nl10y_23^01 lam7n9 ) ( * Nl10y_23^02 lam7n10 ) ( - ( - ( + 0 RFN1_y_23^0 ) RFN1_y_23^0 ) ) ) 0 ) ( = ( * 1 lam7n5 ) 0 ) ( = ( + ( * ( - 1 ) lam7n4 ) ( - ( + 0 ( * RFN1_lt_20^0 1 ) ) ) ) 0 ) ( = ( * 1 lam7n6 ) 0 ) ( = ( * ( - 1 ) lam7n0 ) 0 ) ( = ( * ( - 1 ) lam7n6 ) 0 ) ( = ( * ( - 1 ) lam7n5 ) 0 ) ( = ( + ( * ( - 1 ) lam7n1 ) ( - ( + 0 ( * RFN1___disjvr_10^0 1 ) ) ) ) 0 ) ( = ( * 1 lam7n7 ) 0 ) ( = ( * 1 lam7n8 ) 0 ) ( = ( + ( * ( - 1 ) lam7n2 ) ( - ( + 0 ( * RFN1___disjvr_11^0 1 ) ) ) ) 0 ) ( = ( + ( * ( - 1 ) lam7n3 ) ( - ( + 0 ( * RFN1___disjvr_12^0 1 ) ) ) ) 0 ) ( = ( + ( * ( - 1 ) lam7n7 ) ( - ( + 0 ( * RFN1_a_178^0 1 ) ) ) ) 0 ) ( = ( + ( * ( - 1 ) lam7n8 ) ( - ( + 0 ( * RFN1_rcd_43^0 1 ) ) ) ) 0 ) ) ) ) ( and ( >= lam5n0 0 ) ( >= lam5n9 0 ) ( >= lam5n10 0 ) ( > ( + ( * 2 lam5n0 ) ( * Nl10CT1 lam5n9 ) ( * Nl10CT2 lam5n10 ) ( - 1 ) ) 0 ) ( = ( + ( * 1 lam5n1 ) ( * Nl10__disjvr_10^01 lam5n9 ) ( * Nl10__disjvr_10^02 lam5n10 ) ) 0 ) ( = ( + ( * 1 lam5n2 ) ( * Nl10__disjvr_11^01 lam5n9 ) ( * Nl10__disjvr_11^02 lam5n10 ) ) 0 ) ( = ( + ( * 1 lam5n3 ) ( * Nl10__disjvr_12^01 lam5n9 ) ( * Nl10__disjvr_12^02 lam5n10 ) ) 0 ) ( = ( + ( * Nl10a_178^01 lam5n9 ) ( * Nl10a_178^02 lam5n10 ) ) 0 ) ( = ( + ( * Nl10lt_20^01 lam5n9 ) ( * Nl10lt_20^02 lam5n10 ) ) 0 ) ( = ( + ( * Nl10rcd_43^01 lam5n9 ) ( * Nl10rcd_43^02 lam5n10 ) ) 0 ) ( = ( + ( * 1 lam5n4 ) ( * Nl10y_23^01 lam5n9 ) ( * Nl10y_23^02 lam5n10 ) ) 0 ) ( = ( * 1 lam5n5 ) 0 ) ( = ( * ( - 1 ) lam5n4 ) 0 ) ( = ( * 1 lam5n6 ) 0 ) ( = ( * ( - 1 ) lam5n0 ) 0 ) ( = ( * ( - 1 ) lam5n6 ) 0 ) ( = ( * ( - 1 ) lam5n5 ) 0 ) ( = ( * ( - 1 ) lam5n1 ) 0 ) ( = ( * 1 lam5n7 ) 0 ) ( = ( * 1 lam5n8 ) 0 ) ( = ( * ( - 1 ) lam5n2 ) 0 ) ( = ( * ( - 1 ) lam5n3 ) 0 ) ( = ( * ( - 1 ) lam5n7 ) 0 ) ( = ( * ( - 1 ) lam5n8 ) 0 ) ) ))
(check-sat)
(exit)
